
List of user-set options:

                                    Name   Value                used
                           compl_inf_tol = 1                     yes
                         constr_viol_tol = 1                     yes
                            dual_inf_tol = 1000                  yes
                           linear_solver = ma97                  yes
                              ma86_small = 1e-30                  no
                                  ma86_u = 0.0001                 no
                              ma97_order = best                  yes
                              ma97_small = 1e-30                 yes
                            ma97_switch1 = at_start              yes
                            ma97_switch2 = od_hd_reuse           yes
                                  ma97_u = 1e-06                 yes
                               ma97_umax = 0.5                   yes
                                max_iter = 1000                  yes
                    max_refinement_steps = 20                    yes
                    min_refinement_steps = 5                     yes
                                 mu_init = 1e-06                 yes
           mu_superlinear_decrease_power = 1.25                  yes
                   nlp_scaling_min_value = 1e-08                 yes
                        option_file_name = Preset_Case_9_pf.opt  yes
                             output_file = ./tmp/Preset_Case_9_pf.output  yes
                      print_user_options = yes                   yes
        required_infeasibility_reduction = 1                      no
                                     tol = 1e-08                 yes
                   warm_start_bound_frac = 1e-20                 yes
                   warm_start_bound_push = 1e-20                 yes
                   warm_start_init_point = yes                   yes
              warm_start_mult_bound_push = 1e-20                 yes
                warm_start_mult_init_max = 1e+40                 yes
             warm_start_slack_bound_frac = 1e-20                 yes
             warm_start_slack_bound_push = 1e-20                 yes

******************************************************************************
This program contains Ipopt, a library for large-scale nonlinear optimization.
 Ipopt is released as open source code under the Eclipse Public License (EPL).
         For more information visit http://projects.coin-or.org/Ipopt
******************************************************************************

This is Ipopt version 3.12.10, running with linear solver ma97.

Number of nonzeros in equality constraint Jacobian...:   123442
Number of nonzeros in inequality constraint Jacobian.:      213
Number of nonzeros in Lagrangian Hessian.............:    49069

Total number of variables............................:    31591
                     variables with only lower bounds:    12912
                variables with lower and upper bounds:    15130
                     variables with only upper bounds:        0
Total number of equality constraints.................:    31483
Total number of inequality constraints...............:       25
        inequality constraints with only lower bounds:        4
   inequality constraints with lower and upper bounds:        0
        inequality constraints with only upper bounds:       21

iter    objective    inf_pr   inf_du lg(mu)  ||d||  lg(rg) alpha_du alpha_pr  ls
   0 -5.1562344e+00 4.07e-03 1.02e+00  -6.0 0.00e+00    -  0.00e+00 0.00e+00   0
   1 -5.1612884e+00 1.89e+00 1.79e+01  -6.0 3.68e+05    -  8.70e-05 5.75e-04h  1
   2 -5.1613010e+00 1.89e+00 4.78e+01  -6.0 7.38e+01  -4.0 2.03e-01 2.81e-04h  1
   3 -5.2105465e+00 1.73e+00 2.00e+02  -6.0 8.78e+03    -  5.15e-02 9.22e-02h  1
   4 -5.2645136e+00 1.56e+00 3.79e+02  -6.0 6.58e+03    -  4.14e-01 1.10e-01h  1
   5 -5.4411711e+00 7.89e+00 1.01e+03  -6.0 4.58e+03    -  3.08e-01 2.36e-01h  1
   6 -5.5797486e+00 1.19e+01 2.06e+03  -6.0 3.41e+03    -  4.90e-01 4.49e-01h  1
   7 -5.6450791e+00 1.19e+01 2.39e+03  -6.0 1.48e+03    -  2.55e-01 3.37e-01h  1
   8 -5.6715709e+00 1.05e+01 2.49e+03  -6.0 2.07e+03    -  2.26e-01 1.33e-01h  1
   9 -5.6720321e+00 1.02e+01 4.59e+03  -6.0 2.65e+01  -4.5 1.64e-01 3.15e-02h  1
iter    objective    inf_pr   inf_du lg(mu)  ||d||  lg(rg) alpha_du alpha_pr  ls
  10 -5.7454198e+00 4.76e+00 2.51e+04  -6.0 1.18e+03    -  9.72e-02 7.84e-01f  1
  11 -5.7404481e+00 3.46e+00 4.01e+04  -6.0 5.98e+01  -5.0 4.39e-02 2.74e-01h  1
  12 -5.7359501e+00 1.71e-01 8.67e+03  -6.0 6.82e+00  -5.4 9.09e-01 9.51e-01h  1
  13 -5.7433247e+00 1.05e-01 1.68e+05  -6.0 1.62e+01  -5.9 1.00e+00 3.88e-01h  1
  14 -5.7665571e+00 5.12e-02 1.41e+05  -6.0 3.59e+01  -6.4 5.21e-01 1.00e+00h  1
  15 -5.7755782e+00 4.68e-02 7.81e+05  -6.0 7.40e+01  -6.9 6.97e-01 2.68e-01h  1
  16 -5.7769066e+00 4.59e-02 1.46e+06  -6.0 2.19e+02  -7.3 2.06e-01 2.48e-02h  1
  17r-5.7769066e+00 4.59e-02 1.00e+03  -1.3 0.00e+00  -6.9 0.00e+00 7.75e-08R  2
  18r-5.7797130e+00 4.48e-02 1.00e+03  -1.3 4.03e+03    -  4.82e-05 2.39e-05f  1
  19 -5.7857386e+00 7.96e-01 2.99e+02  -6.0 3.16e+05    -  1.15e-03 7.33e-04h  1
iter    objective    inf_pr   inf_du lg(mu)  ||d||  lg(rg) alpha_du alpha_pr  ls
  20 -5.8353687e+00 7.67e+01 3.15e+02  -6.0 1.91e+05    -  1.33e-03 1.19e-02h  1
  21 -5.8376006e+00 7.65e+01 3.14e+02  -6.0 5.60e+04    -  7.24e-04 2.19e-03h  1
  22 -5.8387935e+00 7.64e+01 3.13e+02  -6.0 3.61e+04    -  5.01e-03 1.64e-03h  1
  23 -5.8476313e+00 7.54e+01 3.09e+02  -6.0 3.60e+04    -  1.64e-02 1.37e-02h  1
  24 -5.8520916e+00 7.26e+01 2.98e+02  -6.0 2.77e+04    -  2.72e-02 3.72e-02h  1
  25 -5.8535996e+00 7.10e+01 2.91e+02  -6.0 1.43e+04    -  5.51e-02 2.27e-02h  1
  26 -5.8581351e+00 6.65e+01 2.72e+02  -6.0 1.35e+04    -  5.32e-02 6.67e-02h  1
  27 -5.8815419e+00 6.12e+01 8.43e+02  -6.0 1.66e+04    -  1.62e-02 8.63e-02h  1
  28 -5.8824271e+00 5.54e+01 1.88e+04  -6.0 1.60e+03  -7.4 3.50e-03 1.03e-01h  1
  29 -5.8835130e+00 4.49e+01 1.52e+04  -6.0 2.23e+03  -7.9 1.37e-02 1.90e-01h  1
iter    objective    inf_pr   inf_du lg(mu)  ||d||  lg(rg) alpha_du alpha_pr  ls
  30 -5.8852378e+00 4.45e+01 1.51e+04  -6.0 5.83e+03  -8.3 1.06e-01 8.24e-03h  1
  31 -5.8898140e+00 4.44e+01 1.50e+04  -6.0 5.35e+04  -8.8 1.26e-02 2.54e-03h  1
  32 -5.8938531e+00 3.82e+01 1.29e+04  -6.0 7.67e+03    -  1.15e-01 1.40e-01h  1
  33 -5.8975995e+00 4.34e+01 9.89e+03  -6.0 3.58e+03    -  3.46e-01 2.35e-01h  1
  34 -5.9006054e+00 9.03e+01 6.19e+03  -6.0 4.74e+03    -  4.05e-01 3.73e-01h  1
  35 -5.9047410e+00 8.05e+01 1.37e+05  -6.0 2.84e+03    -  4.95e-02 4.31e-01h  1
  36 -5.9063422e+00 7.31e+01 1.38e+05  -6.0 2.13e+02  -8.4 4.32e-01 9.23e-02h  1
  37 -5.9191115e+00 2.09e+01 6.26e+04  -6.0 2.13e+02  -8.9 2.10e-01 7.14e-01h  1
  38 -5.9310458e+00 1.19e+01 4.99e+04  -6.0 5.79e+02  -9.4 6.71e-01 5.07e-01h  1
  39 -5.9347426e+00 2.27e+01 7.11e+04  -6.0 3.90e+03    -  7.39e-02 2.13e-01h  1
iter    objective    inf_pr   inf_du lg(mu)  ||d||  lg(rg) alpha_du alpha_pr  ls
  40 -5.9362384e+00 3.75e+01 1.64e+05  -6.0 1.24e+04    -  1.66e-02 7.65e-02h  1
  41 -5.9388201e+00 3.32e+01 3.85e+05  -6.0 3.52e+02    -  1.13e-05 1.13e-01h  1
  42 -5.9438955e+00 2.68e+01 3.28e+05  -6.0 5.98e+02    -  1.94e-01 2.02e-01h  1
  43r-5.9438955e+00 2.68e+01 1.00e+03   1.3 0.00e+00    -  0.00e+00 9.83e-08R  2
  44r-5.9522010e+00 2.68e+01 1.00e+03   1.3 1.01e+05    -  9.53e-08 9.88e-08f  1
  45 -5.9520312e+00 2.64e+01 4.37e+03  -6.0 6.46e+01    -  2.98e-06 1.30e-02h  1
  46 -5.9514940e+00 2.53e+01 4.19e+03  -6.0 6.45e+01    -  2.71e-02 4.09e-02h  1
  47 -5.9503277e+00 2.30e+01 3.80e+03  -6.0 5.12e+01    -  6.94e-02 9.21e-02h  1
  48 -5.9468084e+00 1.60e+01 2.64e+03  -6.0 2.88e+01    -  3.51e-01 3.06e-01h  1
  49 -5.9419116e+00 6.18e+00 1.02e+03  -6.0 1.64e+01    -  5.90e-01 6.14e-01h  1
iter    objective    inf_pr   inf_du lg(mu)  ||d||  lg(rg) alpha_du alpha_pr  ls
  50 -5.9416143e+00 5.53e+00 9.14e+02  -6.0 1.68e+01    -  8.57e-01 1.04e-01h  1
  51 -5.9398387e+00 1.25e-01 2.72e+01  -6.0 7.52e+01    -  8.39e-01 1.00e+00h  1
  52 -5.9410655e+00 6.36e-03 1.27e+01  -6.0 1.26e+01    -  8.74e-01 1.00e+00h  1
  53 -5.9443776e+00 7.70e-02 6.67e+00  -6.0 4.95e+01    -  8.45e-01 1.00e+00h  1
  54 -5.9454964e+00 7.74e-02 6.31e+00  -6.0 8.78e+01    -  4.05e-01 3.18e-01h  1
  55 -5.9468708e+00 1.52e-01 8.14e+02  -6.0 6.92e+01    -  9.17e-01 1.00e+00f  1
  56 -5.9477867e+00 1.42e-01 1.23e+03  -6.0 1.53e+02  -6.2 6.60e-02 6.92e-02h  1
  57 -5.9532050e+00 4.30e+00 2.67e+04  -6.0 5.50e+02    -  8.37e-01 1.00e+00h  1
  58 -5.9545079e+00 4.01e+00 1.50e+05  -6.0 1.06e+03    -  2.13e-01 9.22e-02h  1
  59 -5.9557355e+00 3.81e+00 1.44e+06  -6.0 1.17e+03    -  7.14e-01 7.26e-02h  1
iter    objective    inf_pr   inf_du lg(mu)  ||d||  lg(rg) alpha_du alpha_pr  ls
  60r-5.9557355e+00 3.81e+00 1.00e+03   0.4 0.00e+00  -6.7 0.00e+00 8.92e-08R  2
  61r-5.9662597e+00 3.80e+00 1.00e+03   0.4 1.59e+04    -  2.93e-06 9.23e-07f  1
  62 -5.9653370e+00 3.45e+00 3.74e+04  -6.0 2.73e+01    -  1.17e-01 9.36e-02h  1
  63 -5.9613614e+00 1.92e+00 7.24e+05  -6.0 2.53e+01    -  9.36e-02 4.43e-01h  1
  64 -5.9591978e+00 1.08e+00 4.08e+05  -6.0 1.23e+01    -  8.00e-01 4.36e-01h  1
  65 -5.9577500e+00 2.45e-02 9.23e+03  -6.0 6.77e+00    -  8.27e-01 9.77e-01h  1
  66 -5.9623763e+00 9.07e-03 1.03e+03  -6.0 2.35e+00    -  5.66e-01 8.88e-01f  1
  67 -5.9597856e+00 2.61e-03 1.25e+02  -6.0 1.35e+00    -  6.62e-01 1.00e+00h  1
  68 -5.9631661e+00 7.93e-03 7.05e+01  -6.0 1.88e+01    -  2.73e-01 2.44e-01h  1
  69 -5.9636693e+00 4.40e-03 3.29e+00  -6.0 1.18e+01    -  9.46e-01 1.00e+00h  1
iter    objective    inf_pr   inf_du lg(mu)  ||d||  lg(rg) alpha_du alpha_pr  ls
  70 -5.9639459e+00 2.78e-02 5.56e+01  -6.0 1.59e+02    -  5.25e-01 2.59e-01h  1
  71 -5.9657383e+00 8.31e-01 1.34e+01  -6.0 2.82e+02    -  9.33e-01 8.10e-01f  1
  72 -5.9666091e+00 8.50e-01 1.50e+03  -6.0 7.98e+02    -  6.84e-01 1.08e-01h  1
  73 -5.9721545e+00 6.74e-01 2.73e+03  -6.0 8.40e+02    -  8.91e-01 8.20e-01H  1
  74 -5.9722694e+00 8.00e-01 2.71e+03  -6.0 2.83e+04    -  2.56e-02 7.21e-03h  1
  75 -5.9734182e+00 8.65e-01 1.06e+04  -6.0 5.43e+02    -  6.33e-01 2.04e-01h  1
  76 -5.9766407e+00 1.92e+00 4.73e+03  -6.0 5.37e+02    -  9.74e-02 5.32e-01h  1
  77 -5.9794136e+00 1.38e+00 4.57e+04  -6.0 5.70e+02    -  9.75e-01 3.48e-01h  1
  78 -5.9813626e+00 1.54e+00 7.52e+04  -6.0 9.64e+02    -  7.18e-01 2.05e-01h  1
  79 -5.9914972e+00 7.89e-01 8.99e+04  -6.0 3.45e+02    -  8.96e-03 1.00e+00h  1
iter    objective    inf_pr   inf_du lg(mu)  ||d||  lg(rg) alpha_du alpha_pr  ls
  80 -5.9956933e+00 6.03e-01 3.83e+05  -6.0 1.55e+01  -6.3 8.97e-01 2.35e-01h  1
  81 -6.0104876e+00 1.55e-01 8.06e+04  -6.0 3.14e+01  -6.7 4.35e-01 7.44e-01h  1
  82r-6.0104876e+00 1.55e-01 1.00e+03  -0.9 0.00e+00  -7.2 0.00e+00 3.75e-07R  2
  83r-6.0147953e+00 1.53e-01 1.00e+03  -0.9 5.92e+03    -  1.89e-05 8.86e-06f  1
  84 -6.0143089e+00 1.34e-01 1.10e+06  -6.0 3.62e-01    -  8.07e-01 1.28e-01h  1
  85 -6.0156451e+00 6.87e-02 4.23e+06  -6.0 2.30e+00    -  1.28e-01 4.86e-01h  1
  86 -6.0194112e+00 1.28e-03 1.56e+02  -6.0 2.07e+00    -  6.71e-01 1.00e+00f  1
  87 -6.0253974e+00 2.48e-03 2.71e+01  -6.0 2.36e+00    -  3.27e-01 1.00e+00h  1
  88 -6.0263043e+00 1.46e-03 7.36e+00  -6.0 2.56e+00    -  7.30e-01 1.00e+00h  1
  89 -6.0267149e+00 1.11e-03 6.81e+00  -6.0 7.92e+00    -  6.69e-01 1.00e+00h  1
iter    objective    inf_pr   inf_du lg(mu)  ||d||  lg(rg) alpha_du alpha_pr  ls
  90 -6.0269547e+00 4.49e-03 4.77e-01  -6.0 1.59e+01    -  9.68e-01 1.00e+00h  1
  91 -6.0296598e+00 1.30e-01 6.91e-01  -6.0 1.71e+02    -  9.37e-01 1.00e+00h  1
  92 -6.0333896e+00 4.36e-01 1.17e+01  -6.0 7.30e+02    -  8.41e-01 4.39e-01h  1
  93 -6.0336453e+00 3.04e-01 6.38e+00  -6.0 1.53e+02  -7.7 1.56e-01 3.04e-01h  1
  94 -6.0338582e+00 3.58e-01 9.96e+02  -6.0 1.30e+03    -  3.86e-01 4.73e-02h  1
  95 -6.0346817e+00 6.18e+00 1.18e+03  -6.0 4.83e+03    -  1.53e-01 1.18e-01h  1
  96 -6.0362169e+00 7.70e+00 4.56e+03  -6.0 1.53e+03    -  6.63e-01 2.83e-01h  1
  97 -6.0390970e+00 1.90e+01 5.28e+03  -6.0 1.54e+03    -  8.90e-01 6.30e-01h  1
  98 -6.0440428e+00 1.19e+01 1.35e+04  -6.0 8.68e+02    -  7.14e-01 1.00e+00h  1
  99 -6.0460465e+00 9.46e+00 1.69e+05  -6.0 3.24e+02    -  1.00e+00 2.08e-01h  1
iter    objective    inf_pr   inf_du lg(mu)  ||d||  lg(rg) alpha_du alpha_pr  ls
 100 -6.0564811e+00 1.28e+00 6.67e+04  -6.0 3.36e+02    -  5.12e-01 1.00e+00h  1
 101 -6.0610101e+00 9.95e-01 2.94e+05  -6.0 5.06e+02    -  6.26e-02 2.28e-01h  1
 102 -6.0630652e+00 9.19e-01 9.24e+05  -6.0 6.91e+02    -  4.88e-01 7.65e-02h  1
 103r-6.0630652e+00 9.19e-01 1.00e+03  -0.1 0.00e+00    -  0.00e+00 6.78e-08R  2
 104r-6.0699178e+00 9.17e-01 1.00e+03  -0.1 8.09e+03    -  4.79e-06 2.13e-06f  1
 105 -6.0692752e+00 8.20e-01 1.89e+05  -6.0 7.89e-01    -  2.24e-01 1.06e-01h  1
 106 -6.0670605e+00 4.72e-01 1.19e+06  -6.0 8.15e-01    -  1.06e-01 4.25e-01h  1
 107 -6.0647368e+00 5.65e-02 1.43e+05  -6.0 6.61e-01    -  8.31e-01 8.80e-01h  1
 108 -6.0670132e+00 1.99e-02 5.03e+04  -6.0 1.80e+00    -  6.07e-01 6.47e-01f  1
 109 -6.0715824e+00 2.26e-03 1.12e+01  -6.0 1.92e+00    -  7.06e-01 1.00e+00f  1
iter    objective    inf_pr   inf_du lg(mu)  ||d||  lg(rg) alpha_du alpha_pr  ls
 110 -6.0720197e+00 9.00e-04 6.68e-01  -6.0 3.49e+00    -  9.45e-01 1.00e+00h  1
 111 -6.0715177e+00 2.48e-05 3.07e+03  -6.0 2.02e+01    -  9.81e-01 1.00e+00H  1
 112 -6.0722667e+00 1.64e-02 6.74e+00  -6.0 2.02e+02    -  9.55e-01 1.00e+00h  1
 113 -6.0722101e+00 5.28e-03 3.37e-01  -6.0 1.26e+02    -  9.85e-01 1.00e+00h  1
 114 -6.0721315e+00 1.11e-03 9.69e-04  -6.0 8.46e+00    -  1.00e+00 1.00e+00h  1
 115 -6.0721314e+00 1.73e-07 4.15e-08  -6.0 1.04e-01    -  1.00e+00 1.00e+00h  1
 116 -6.0722454e+00 3.35e+00 4.23e+01  -7.5 5.78e+02    -  6.60e-01 8.04e-01h  1
 117 -6.0722345e+00 6.43e-01 9.94e+00  -7.5 1.03e+02    -  1.00e+00 8.46e-01h  1
 118 -6.0722308e+00 5.23e-03 2.10e-02  -7.5 1.75e+01    -  1.00e+00 1.00e+00h  1
 119 -6.0722308e+00 3.79e-07 1.81e-07  -7.5 1.59e-01    -  1.00e+00 1.00e+00h  1
iter    objective    inf_pr   inf_du lg(mu)  ||d||  lg(rg) alpha_du alpha_pr  ls
 120 -6.0722322e+00 3.62e-03 6.85e-01  -9.0 1.79e+01    -  9.19e-01 8.44e-01h  1
 121 -6.0722325e+00 1.24e-04 4.88e-04  -9.0 2.78e+00    -  1.00e+00 1.00e+00h  1
 122 -6.0722325e+00 2.85e-10 4.42e-09  -9.0 2.04e-03    -  1.00e+00 1.00e+00h  1

Number of Iterations....: 122

                                   (scaled)                 (unscaled)
Objective...............:  -4.7439316270697880e+00   -6.0722324826493290e+00
Dual infeasibility......:   4.4246108597008838e-09    5.6635019004171318e-09
Constraint violation....:   2.8533941875963365e-10    2.8533941875963365e-10
Complementarity.........:   1.1109351458690005e-09    1.4219969867123205e-09
Overall NLP error.......:   4.4246108597008838e-09    5.6635019004171318e-09


Number of objective function evaluations             = 135
Number of objective gradient evaluations             = 123
Number of equality constraint evaluations            = 135
Number of inequality constraint evaluations          = 135
Number of equality constraint Jacobian evaluations   = 128
Number of inequality constraint Jacobian evaluations = 128
Number of Lagrangian Hessian evaluations             = 122
Total CPU secs in IPOPT (w/o function evaluations)   =    241.012
Total CPU secs in NLP function evaluations           =      4.244

EXIT: Optimal Solution Found.
